100 10
133 739
190 577
493 186
140 599
614 629
534 840
317 613
788 470
915 679
55 584
649 534
491 542
825 760
747 521
68 827
875 353
256 934
705 579
453 479
551 521
201 572
376 451
552 416
612 685
659 583
598 453
686 111
589 440
788 345
475 545
391 267
575 372
26 461
607 696
778 549
179 292
425 503
792 392
557 560
120 604
460 449
421 582
412 376
272 192
556 374
464 671
420 592
815 583
355 566
568 471
254 605
436 396
429 487
603 850
728 394
296 723
841 436
794 764
133 834
744 507
339 697
366 522
92 654
685 581
619 526
566 256
506 338
358 692
446 556
508 535
768 455
466 166
213 378
457 411
268 381
271 587
300 697
347 289
474 734
497 156
664 532
494 207
442 161
476 404
668 842
768 501
329 407
674 459
594 891
516 615
290 348
335 598
823 427
777 403
517 875
251 470
580 202
697 757
250 279
512 376
